p cnf 18 82
-17 -14 0
-16 -11 0
-13 -10 0
-16 -10 0
-16 -13 0
-12 -7 0
-17 -7 0
-17 -12 0
-9 -6 0
-12 -6 0
-12 -9 0
-15 -6 0
-15 -9 0
-15 -12 0
-8 -5 0
-11 -5 0
-11 -8 0
-10 -5 0
-7 -4 0
-9 -4 0
-14 -4 0
-14 -9 0
-8 -3 0
-13 -3 0
-13 -8 0
-18 -3 0
-18 -8 0
-18 -13 0
18 14 10 6 0
-10 -6 0
-14 -6 0
-14 -10 0
-18 -6 0
-18 -10 0
-18 -14 0
17 13 9 5 0
-9 -5 0
-13 -5 0
-13 -9 0
-17 -5 0
-17 -9 0
-17 -13 0
16 12 8 4 0
-8 -4 0
-12 -4 0
-12 -8 0
-16 -4 0
-16 -8 0
-16 -12 0
15 11 7 3 0
-7 -3 0
-11 -3 0
-11 -7 0
-15 -3 0
-15 -7 0
-15 -11 0
-17 -18 0
-16 -18 0
-16 -17 0
-15 -18 0
-15 -17 0
-15 -16 0
-13 -14 0
-12 -14 0
-12 -13 0
-11 -14 0
-11 -13 0
-11 -12 0
-9 -10 0
-8 -10 0
-8 -9 0
-7 -10 0
-7 -9 0
-7 -8 0
-5 -6 0
-4 -6 0
-4 -5 0
-3 -6 0
-3 -5 0
-3 -4 0
1 0
-2 0
